992
243
1902
76
2074
1754
1926
1970
727
412
189
1588
667
1137
2142
902
2245
1083
199
1226
1588
1743
2203
1617
900
1772
397
1746
311
2073
413
1713
323
609
1180
1536
493
1036
259
2238
306
975
1759
91
2102
2201
636
1384
966
700
